c s0 1
c s1 2
c fl 5
c hl 6
c sp1 4
c sp0 3
p cnf 797 2603
a 1 2 3 4 5 6 0
d 11 1 2 5 6 0
d 31 1 2 5 6 0
d 15 1 2 5 6 0
d 13 1 2 5 6 0
d 377 1 2 0
d 371 3 4 0
d 10 1 2 0
d 127 1 2 0
d 372 3 4 0
d 511 3 4 0
d 334 1 2 0
d 563 1 2 0
d 37 3 4 0
d 568 1 2 0
d 114 3 4 0
d 67 3 4 0
d 457 1 2 0
d 512 1 2 0
d 96 3 4 0
d 266 1 2 0
d 202 1 2 0
d 192 1 2 0
d 199 1 2 0
d 66 3 4 0
d 376 3 4 0
d 505 1 2 0
d 40 3 4 0
d 259 1 2 0
d 373 1 2 0
d 8 1 2 0
d 70 3 4 0
d 394 3 4 0
d 115 3 4 0
d 326 1 2 0
d 449 1 2 0
d 571 1 2 0
d 100 3 4 0
d 135 1 2 0
d 132 1 2 0
d 55 3 4 0
d 331 1 2 0
d 51 3 4 0
d 269 1 2 0
d 23 3 4 0
d 82 3 4 0
d 20 1 2 0
d 36 3 4 0
d 24 1 2 0
d 18 3 4 0
d 515 3 4 0
d 460 1 2 0
d 510 3 4 0
d 367 1 2 0
d 81 3 4 0
d 516 1 2 0
d 85 3 4 0
d 52 3 4 0
d 118 3 4 0
d 97 3 4 0
d 385 1 2 0
d 19 3 4 0
e 7 9 12 14 16 17 21 22 25 26 27 28 29 30 32 33 34 35 38 39 41 42 43 44 45 46 47 48 49 50 53 54 56 57 58 59 60 61 62 63 64 65 68 69 71 72 73 74 75 76 77 78 79 80 83 84 86 87 88 89 90 91 92 93 94 95 98 99 101 102 103 104 105 106 107 108 109 110 111 112 113 116 117 119 120 121 122 123 124 125 126 128 129 130 131 133 134 136 137 138 139 140 141 142 143 144 145 146 147 148 149 150 151 152 153 154 155 156 157 158 159 160 161 162 163 164 165 166 167 168 169 170 171 172 173 174 175 176 177 178 179 180 181 182 183 184 185 186 187 188 189 190 191 193 194 195 196 197 198 200 201 203 204 205 206 207 208 209 210 211 212 213 214 215 216 217 218 219 220 221 222 223 224 225 226 227 228 229 230 231 232 233 234 235 236 237 238 239 240 241 242 243 244 245 246 247 248 249 250 251 252 253 254 255 256 257 258 260 261 262 263 264 265 267 268 270 271 272 273 274 275 276 277 278 279 280 281 282 283 284 285 286 287 288 289 290 291 292 293 294 295 296 297 298 299 300 301 302 303 304 305 306 307 308 309 310 311 312 313 314 315 316 317 318 319 320 321 322 323 324 325 327 328 329 330 332 333 335 336 337 338 339 340 341 342 343 344 345 346 347 348 349 350 351 352 353 354 355 356 357 358 359 360 361 362 363 364 365 366 368 369 370 374 375 378 379 380 381 382 383 384 386 387 388 389 390 391 392 393 395 396 397 398 399 400 401 402 403 404 405 406 407 408 409 410 411 412 413 414 415 416 417 418 419 420 421 422 423 424 425 426 427 428 429 430 431 432 433 434 435 436 437 438 439 440 441 442 443 444 445 446 447 448 450 451 452 453 454 455 456 458 459 461 462 463 464 465 466 467 468 469 470 471 472 473 474 475 476 477 478 479 480 481 482 483 484 485 486 487 488 489 490 491 492 493 494 495 496 497 498 499 500 501 502 503 504 506 507 508 509 513 514 517 518 519 520 521 522 523 524 525 526 527 528 529 530 531 532 533 534 535 536 537 538 539 540 541 542 543 544 545 546 547 548 549 550 551 552 553 554 555 556 557 558 559 560 561 562 564 565 566 567 569 570 572 573 574 575 576 577 578 579 580 581 582 583 584 585 586 587 588 589 590 591 592 593 594 595 596 597 598 599 600 601 602 603 604 605 606 607 608 609 610 611 612 613 614 615 616 617 618 619 620 621 622 623 624 625 626 627 628 629 630 631 632 633 634 635 636 637 638 639 640 641 642 643 644 645 646 647 648 649 650 651 652 653 654 655 656 657 658 659 660 661 662 663 664 665 666 667 668 669 670 671 672 673 674 675 676 677 678 679 680 681 682 683 684 685 686 687 688 689 690 691 692 693 694 695 696 697 698 699 700 701 702 703 704 705 706 707 708 709 710 711 712 713 714 715 716 717 718 719 720 721 722 723 724 725 726 727 728 729 730 731 732 733 734 735 736 737 738 739 740 741 742 743 744 745 746 747 748 749 750 751 752 753 754 755 756 757 758 759 760 761 762 763 764 765 766 767 768 769 770 771 772 773 774 775 776 777 778 779 780 781 782 783 784 785 786 787 788 789 790 791 792 793 794 795 796 0
-7 -1 0
-7 -2 0
7 1 2 0
7 9 0
-8 9 0
-9 -7 8 0
-12 -6 0
-12 -5 0
-12 11 0
12 6 5 -11 0
-14 3 -13 0
-14 -3 13 0
14 3 13 0
14 -3 -13 0
-16 4 -15 0
-16 -4 15 0
16 4 15 0
16 -4 -15 0
-17 14 0
-17 16 0
17 -14 -16 0
-21 19 0
-21 -20 0
21 -19 20 0
-22 19 -20 0
-22 -19 20 0
22 19 20 0
22 -19 -20 0
-25 23 -24 0
-25 -23 24 0
25 23 24 0
25 -23 -24 0
-26 22 0
-26 25 0
26 -22 -25 0
-21 27 0
-26 27 0
-27 21 26 0
-28 18 0
-28 27 0
28 -18 -27 0
17 29 0
-28 29 0
-29 -17 28 0
12 30 0
-29 30 0
-30 -12 29 0
-32 31 0
-32 6 0
-32 -5 0
-32 -11 0
32 -31 -6 5 11 0
-33 3 -13 0
-33 -3 13 0
33 3 13 0
33 -3 -13 0
-34 4 -15 0
-34 -4 15 0
34 4 15 0
34 -4 -15 0
-35 33 0
-35 34 0
35 -33 -34 0
-38 37 0
-38 -20 0
38 -37 20 0
-39 37 -20 0
-39 -37 20 0
39 37 20 0
39 -37 -20 0
-41 40 0
-41 -24 0
41 -40 24 0
-42 39 0
-42 41 0
42 -39 -41 0
-38 43 0
-42 43 0
-43 38 42 0
-44 36 0
-44 43 0
44 -36 -43 0
35 45 0
-44 45 0
-45 -35 44 0
32 46 0
-45 46 0
-46 -32 45 0
-47 -31 0
-47 -6 0
-47 5 0
47 31 6 -5 0
-48 3 -13 0
-48 -3 13 0
48 3 13 0
48 -3 -13 0
-49 4 -15 0
-49 -4 15 0
49 4 15 0
49 -4 -15 0
-50 48 0
-50 49 0
50 -48 -49 0
-53 52 0
-53 -20 0
53 -52 20 0
-54 52 -20 0
-54 -52 20 0
54 52 20 0
54 -52 -20 0
-56 55 -24 0
-56 -55 24 0
56 55 24 0
56 -55 -24 0
-57 54 0
-57 56 0
57 -54 -56 0
-53 58 0
-57 58 0
-58 53 57 0
-59 51 0
-59 58 0
59 -51 -58 0
50 60 0
-59 60 0
-60 -50 59 0
47 61 0
-60 61 0
-61 -47 60 0
-62 -31 0
-62 6 0
-62 -5 0
-62 11 0
62 31 -6 5 -11 0
-63 3 -13 0
-63 -3 13 0
63 3 13 0
63 -3 -13 0
-64 4 -15 0
-64 -4 15 0
64 4 15 0
64 -4 -15 0
-65 63 0
-65 64 0
65 -63 -64 0
-68 67 0
-68 -20 0
68 -67 20 0
-69 67 -20 0
-69 -67 20 0
69 67 20 0
69 -67 -20 0
-71 70 -24 0
-71 -70 24 0
71 70 24 0
71 -70 -24 0
-72 69 0
-72 71 0
72 -69 -71 0
-68 73 0
-72 73 0
-73 68 72 0
-74 66 0
-74 73 0
74 -66 -73 0
65 75 0
-74 75 0
-75 -65 74 0
62 76 0
-75 76 0
-76 -62 75 0
-77 -31 0
-77 6 0
-77 -5 0
-77 -11 0
77 31 -6 5 11 0
-78 3 -13 0
-78 -3 13 0
78 3 13 0
78 -3 -13 0
-79 4 -15 0
-79 -4 15 0
79 4 15 0
79 -4 -15 0
-80 78 0
-80 79 0
80 -78 -79 0
-83 82 0
-83 -20 0
83 -82 20 0
-84 82 -20 0
-84 -82 20 0
84 82 20 0
84 -82 -20 0
-86 85 -24 0
-86 -85 24 0
86 85 24 0
86 -85 -24 0
-87 84 0
-87 86 0
87 -84 -86 0
-83 88 0
-87 88 0
-88 83 87 0
-89 81 0
-89 88 0
89 -81 -88 0
80 90 0
-89 90 0
-90 -80 89 0
77 91 0
-90 91 0
-91 -77 90 0
-92 31 0
-92 6 0
-92 -5 0
-92 11 0
92 -31 -6 5 -11 0
-93 3 -13 0
-93 -3 13 0
93 3 13 0
93 -3 -13 0
-94 4 -15 0
-94 -4 15 0
94 4 15 0
94 -4 -15 0
-95 93 0
-95 94 0
95 -93 -94 0
-98 97 0
-98 -20 0
98 -97 20 0
-99 97 -20 0
-99 -97 20 0
99 97 20 0
99 -97 -20 0
-101 100 -24 0
-101 -100 24 0
101 100 24 0
101 -100 -24 0
-102 99 0
-102 101 0
102 -99 -101 0
-98 103 0
-102 103 0
-103 98 102 0
-104 96 0
-104 103 0
104 -96 -103 0
95 105 0
-104 105 0
-105 -95 104 0
92 106 0
-105 106 0
-106 -92 105 0
-107 -31 0
-107 -6 0
-107 -5 0
-107 -11 0
107 31 6 5 11 0
-108 31 0
-108 -6 0
-108 -5 0
-108 -11 0
108 -31 6 5 11 0
-109 31 0
-109 -6 0
-109 5 0
109 -31 6 -5 0
-107 110 0
-108 110 0
-109 110 0
-110 107 108 109 0
-111 3 -13 0
-111 -3 13 0
111 3 13 0
111 -3 -13 0
-112 4 -15 0
-112 -4 15 0
112 4 15 0
112 -4 -15 0
-113 111 0
-113 112 0
113 -111 -112 0
-116 115 0
-116 -20 0
116 -115 20 0
-117 115 -20 0
-117 -115 20 0
117 115 20 0
117 -115 -20 0
-119 118 -24 0
-119 -118 24 0
119 118 24 0
119 -118 -24 0
-120 117 0
-120 119 0
120 -117 -119 0
-116 121 0
-120 121 0
-121 116 120 0
-122 114 0
-122 121 0
122 -114 -121 0
113 123 0
-122 123 0
-123 -113 122 0
110 124 0
-123 124 0
-124 -110 123 0
-125 30 0
-125 46 0
-125 61 0
-125 76 0
-125 91 0
-125 106 0
-125 124 0
125 -30 -46 -61 -76 -91 -106 -124 0
10 126 0
-125 126 0
-126 -10 125 0
-128 -6 0
-128 -5 0
128 6 5 0
-129 3 -13 0
-129 -3 13 0
129 3 13 0
129 -3 -13 0
-130 4 -15 0
-130 -4 15 0
130 4 15 0
130 -4 -15 0
-131 129 0
-131 130 0
131 -129 -130 0
-133 19 0
-133 -132 0
133 -19 132 0
-134 19 -132 0
-134 -19 132 0
134 19 132 0
134 -19 -132 0
-136 23 -135 0
-136 -23 135 0
136 23 135 0
136 -23 -135 0
-137 134 0
-137 136 0
137 -134 -136 0
-133 138 0
-137 138 0
-138 133 137 0
-139 18 0
-139 138 0
139 -18 -138 0
131 140 0
-139 140 0
-140 -131 139 0
128 141 0
-140 141 0
-141 -128 140 0
-142 -31 0
-142 -6 0
-142 5 0
142 31 6 -5 0
-143 3 -13 0
-143 -3 13 0
143 3 13 0
143 -3 -13 0
-144 4 -15 0
-144 -4 15 0
144 4 15 0
144 -4 -15 0
-145 143 0
-145 144 0
145 -143 -144 0
-146 52 0
-146 -132 0
146 -52 132 0
-147 52 -132 0
-147 -52 132 0
147 52 132 0
147 -52 -132 0
-148 55 -135 0
-148 -55 135 0
148 55 135 0
148 -55 -135 0
-149 147 0
-149 148 0
149 -147 -148 0
-146 150 0
-149 150 0
-150 146 149 0
-151 51 0
-151 150 0
151 -51 -150 0
145 152 0
-151 152 0
-152 -145 151 0
142 153 0
-152 153 0
-153 -142 152 0
-154 -31 0
-154 6 0
-154 -5 0
154 31 -6 5 0
-155 3 -13 0
-155 -3 13 0
155 3 13 0
155 -3 -13 0
-156 4 -15 0
-156 -4 15 0
156 4 15 0
156 -4 -15 0
-157 155 0
-157 156 0
157 -155 -156 0
-158 67 0
-158 -132 0
158 -67 132 0
-159 67 -132 0
-159 -67 132 0
159 67 132 0
159 -67 -132 0
-160 70 -135 0
-160 -70 135 0
160 70 135 0
160 -70 -135 0
-161 159 0
-161 160 0
161 -159 -160 0
-158 162 0
-161 162 0
-162 158 161 0
-163 66 0
-163 162 0
163 -66 -162 0
157 164 0
-163 164 0
-164 -157 163 0
154 165 0
-164 165 0
-165 -154 164 0
-166 31 0
-166 6 0
-166 -5 0
166 -31 -6 5 0
-167 3 -13 0
-167 -3 13 0
167 3 13 0
167 -3 -13 0
-168 4 -15 0
-168 -4 15 0
168 4 15 0
168 -4 -15 0
-169 167 0
-169 168 0
169 -167 -168 0
-170 97 0
-170 -132 0
170 -97 132 0
-171 97 -132 0
-171 -97 132 0
171 97 132 0
171 -97 -132 0
-172 100 -135 0
-172 -100 135 0
172 100 135 0
172 -100 -135 0
-173 171 0
-173 172 0
173 -171 -172 0
-170 174 0
-173 174 0
-174 170 173 0
-175 96 0
-175 174 0
175 -96 -174 0
169 176 0
-175 176 0
-176 -169 175 0
166 177 0
-176 177 0
-177 -166 176 0
-178 31 0
-178 -6 0
-178 5 0
178 -31 6 -5 0
-179 3 -13 0
-179 -3 13 0
179 3 13 0
179 -3 -13 0
-180 4 -15 0
-180 -4 15 0
180 4 15 0
180 -4 -15 0
-181 179 0
-181 180 0
181 -179 -180 0
-182 115 0
-182 -132 0
182 -115 132 0
-183 115 -132 0
-183 -115 132 0
183 115 132 0
183 -115 -132 0
-184 118 -135 0
-184 -118 135 0
184 118 135 0
184 -118 -135 0
-185 183 0
-185 184 0
185 -183 -184 0
-182 186 0
-185 186 0
-186 182 185 0
-187 114 0
-187 186 0
187 -114 -186 0
181 188 0
-187 188 0
-188 -181 187 0
178 189 0
-188 189 0
-189 -178 188 0
-190 141 0
-190 153 0
-190 165 0
-190 177 0
-190 189 0
190 -141 -153 -165 -177 -189 0
127 191 0
-190 191 0
-191 -127 190 0
-193 31 0
-193 -6 0
-193 -5 0
-193 -11 0
193 -31 6 5 11 0
-194 31 0
-194 -6 0
-194 5 0
194 -31 6 -5 0
-193 195 0
-194 195 0
-195 193 194 0
-196 3 -13 0
-196 -3 13 0
196 3 13 0
196 -3 -13 0
-197 4 -15 0
-197 -4 15 0
197 4 15 0
197 -4 -15 0
-198 196 0
-198 197 0
198 -196 -197 0
-200 115 0
-200 -199 0
200 -115 199 0
-201 115 -199 0
-201 -115 199 0
201 115 199 0
201 -115 -199 0
-203 118 -202 0
-203 -118 202 0
203 118 202 0
203 -118 -202 0
-204 201 0
-204 203 0
204 -201 -203 0
-200 205 0
-204 205 0
-205 200 204 0
-206 114 0
-206 205 0
206 -114 -205 0
198 207 0
-206 207 0
-207 -198 206 0
195 208 0
-207 208 0
-208 -195 207 0
-209 31 0
-209 -6 0
-209 -5 0
-209 11 0
209 -31 6 5 -11 0
-210 3 -13 0
-210 -3 13 0
210 3 13 0
210 -3 -13 0
-211 4 -15 0
-211 -4 15 0
211 4 15 0
211 -4 -15 0
-212 210 0
-212 211 0
212 -210 -211 0
-213 19 0
-213 -199 0
213 -19 199 0
-214 19 -199 0
-214 -19 199 0
214 19 199 0
214 -19 -199 0
-215 23 -202 0
-215 -23 202 0
215 23 202 0
215 -23 -202 0
-216 214 0
-216 215 0
216 -214 -215 0
-213 217 0
-216 217 0
-217 213 216 0
-218 18 0
-218 217 0
218 -18 -217 0
212 219 0
-218 219 0
-219 -212 218 0
209 220 0
-219 220 0
-220 -209 219 0
-221 -31 0
-221 -6 0
-221 5 0
221 31 6 -5 0
-222 3 -13 0
-222 -3 13 0
222 3 13 0
222 -3 -13 0
-223 4 -15 0
-223 -4 15 0
223 4 15 0
223 -4 -15 0
-224 222 0
-224 223 0
224 -222 -223 0
-225 52 0
-225 -199 0
225 -52 199 0
-226 52 -199 0
-226 -52 199 0
226 52 199 0
226 -52 -199 0
-227 55 -202 0
-227 -55 202 0
227 55 202 0
227 -55 -202 0
-228 226 0
-228 227 0
228 -226 -227 0
-225 229 0
-228 229 0
-229 225 228 0
-230 51 0
-230 229 0
230 -51 -229 0
224 231 0
-230 231 0
-231 -224 230 0
221 232 0
-231 232 0
-232 -221 231 0
-233 31 0
-233 6 0
-233 -5 0
-233 11 0
233 -31 -6 5 -11 0
-234 3 -13 0
-234 -3 13 0
234 3 13 0
234 -3 -13 0
-235 4 -15 0
-235 -4 15 0
235 4 15 0
235 -4 -15 0
-236 234 0
-236 235 0
236 -234 -235 0
-237 97 0
-237 -199 0
237 -97 199 0
-238 97 -199 0
-238 -97 199 0
238 97 199 0
238 -97 -199 0
-239 100 -202 0
-239 -100 202 0
239 100 202 0
239 -100 -202 0
-240 238 0
-240 239 0
240 -238 -239 0
-237 241 0
-240 241 0
-241 237 240 0
-242 96 0
-242 241 0
242 -96 -241 0
236 243 0
-242 243 0
-243 -236 242 0
233 244 0
-243 244 0
-244 -233 243 0
-245 31 0
-245 6 0
-245 -5 0
-245 -11 0
245 -31 -6 5 11 0
-246 3 -13 0
-246 -3 13 0
246 3 13 0
246 -3 -13 0
-247 4 -15 0
-247 -4 15 0
247 4 15 0
247 -4 -15 0
-248 246 0
-248 247 0
248 -246 -247 0
-249 37 0
-249 -199 0
249 -37 199 0
-250 37 -199 0
-250 -37 199 0
250 37 199 0
250 -37 -199 0
-251 40 0
-251 -202 0
251 -40 202 0
-252 250 0
-252 251 0
252 -250 -251 0
-249 253 0
-252 253 0
-253 249 252 0
-254 36 0
-254 253 0
254 -36 -253 0
248 255 0
-254 255 0
-255 -248 254 0
245 256 0
-255 256 0
-256 -245 255 0
-257 208 0
-257 220 0
-257 232 0
-257 244 0
-257 256 0
257 -208 -220 -232 -244 -256 0
192 258 0
-257 258 0
-258 -192 257 0
-260 31 0
-260 -6 0
-260 -5 0
-260 -11 0
260 -31 6 5 11 0
-261 31 0
-261 -6 0
-261 5 0
261 -31 6 -5 0
-260 262 0
-261 262 0
-262 260 261 0
-263 3 -13 0
-263 -3 13 0
263 3 13 0
263 -3 -13 0
-264 4 -15 0
-264 -4 15 0
264 4 15 0
264 -4 -15 0
-265 263 0
-265 264 0
265 -263 -264 0
-267 115 0
-267 -266 0
267 -115 266 0
-268 115 -266 0
-268 -115 266 0
268 115 266 0
268 -115 -266 0
-270 118 -269 0
-270 -118 269 0
270 118 269 0
270 -118 -269 0
-271 268 0
-271 270 0
271 -268 -270 0
-267 272 0
-271 272 0
-272 267 271 0
-273 114 0
-273 272 0
273 -114 -272 0
265 274 0
-273 274 0
-274 -265 273 0
262 275 0
-274 275 0
-275 -262 274 0
-276 31 0
-276 -6 0
-276 -5 0
-276 11 0
276 -31 6 5 -11 0
-277 3 -13 0
-277 -3 13 0
277 3 13 0
277 -3 -13 0
-278 4 -15 0
-278 -4 15 0
278 4 15 0
278 -4 -15 0
-279 277 0
-279 278 0
279 -277 -278 0
-280 19 0
-280 -266 0
280 -19 266 0
-281 19 -266 0
-281 -19 266 0
281 19 266 0
281 -19 -266 0
-282 23 -269 0
-282 -23 269 0
282 23 269 0
282 -23 -269 0
-283 281 0
-283 282 0
283 -281 -282 0
-280 284 0
-283 284 0
-284 280 283 0
-285 18 0
-285 284 0
285 -18 -284 0
279 286 0
-285 286 0
-286 -279 285 0
276 287 0
-286 287 0
-287 -276 286 0
-288 -31 0
-288 -6 0
-288 5 0
288 31 6 -5 0
-289 3 -13 0
-289 -3 13 0
289 3 13 0
289 -3 -13 0
-290 4 -15 0
-290 -4 15 0
290 4 15 0
290 -4 -15 0
-291 289 0
-291 290 0
291 -289 -290 0
-292 52 0
-292 -266 0
292 -52 266 0
-293 52 -266 0
-293 -52 266 0
293 52 266 0
293 -52 -266 0
-294 55 -269 0
-294 -55 269 0
294 55 269 0
294 -55 -269 0
-295 293 0
-295 294 0
295 -293 -294 0
-292 296 0
-295 296 0
-296 292 295 0
-297 51 0
-297 296 0
297 -51 -296 0
291 298 0
-297 298 0
-298 -291 297 0
288 299 0
-298 299 0
-299 -288 298 0
-300 31 0
-300 6 0
-300 -5 0
-300 11 0
300 -31 -6 5 -11 0
-301 3 -13 0
-301 -3 13 0
301 3 13 0
301 -3 -13 0
-302 4 -15 0
-302 -4 15 0
302 4 15 0
302 -4 -15 0
-303 301 0
-303 302 0
303 -301 -302 0
-304 97 0
-304 -266 0
304 -97 266 0
-305 97 -266 0
-305 -97 266 0
305 97 266 0
305 -97 -266 0
-306 100 -269 0
-306 -100 269 0
306 100 269 0
306 -100 -269 0
-307 305 0
-307 306 0
307 -305 -306 0
-304 308 0
-307 308 0
-308 304 307 0
-309 96 0
-309 308 0
309 -96 -308 0
303 310 0
-309 310 0
-310 -303 309 0
300 311 0
-310 311 0
-311 -300 310 0
-312 31 0
-312 6 0
-312 -5 0
-312 -11 0
312 -31 -6 5 11 0
-313 3 -13 0
-313 -3 13 0
313 3 13 0
313 -3 -13 0
-314 4 -15 0
-314 -4 15 0
314 4 15 0
314 -4 -15 0
-315 313 0
-315 314 0
315 -313 -314 0
-316 37 0
-316 -266 0
316 -37 266 0
-317 37 -266 0
-317 -37 266 0
317 37 266 0
317 -37 -266 0
-318 40 0
-318 -269 0
318 -40 269 0
-319 317 0
-319 318 0
319 -317 -318 0
-316 320 0
-319 320 0
-320 316 319 0
-321 36 0
-321 320 0
321 -36 -320 0
315 322 0
-321 322 0
-322 -315 321 0
312 323 0
-322 323 0
-323 -312 322 0
-324 275 0
-324 287 0
-324 299 0
-324 311 0
-324 323 0
324 -275 -287 -299 -311 -323 0
259 325 0
-324 325 0
-325 -259 324 0
-327 -31 0
-327 6 0
-327 -5 0
327 31 -6 5 0
-328 3 -13 0
-328 -3 13 0
328 3 13 0
328 -3 -13 0
-329 4 -15 0
-329 -4 15 0
329 4 15 0
329 -4 -15 0
-330 328 0
-330 329 0
330 -328 -329 0
-332 67 0
-332 -331 0
332 -67 331 0
-333 67 -331 0
-333 -67 331 0
333 67 331 0
333 -67 -331 0
-335 70 -334 0
-335 -70 334 0
335 70 334 0
335 -70 -334 0
-336 333 0
-336 335 0
336 -333 -335 0
-332 337 0
-336 337 0
-337 332 336 0
-338 66 0
-338 337 0
338 -66 -337 0
330 339 0
-338 339 0
-339 -330 338 0
327 340 0
-339 340 0
-340 -327 339 0
-341 31 0
-341 -5 0
341 -31 5 0
-342 3 -13 0
-342 -3 13 0
342 3 13 0
342 -3 -13 0
-343 4 -15 0
-343 -4 15 0
343 4 15 0
343 -4 -15 0
-344 342 0
-344 343 0
344 -342 -343 0
-345 97 0
-345 -331 0
345 -97 331 0
-346 97 -331 0
-346 -97 331 0
346 97 331 0
346 -97 -331 0
-347 100 -334 0
-347 -100 334 0
347 100 334 0
347 -100 -334 0
-348 346 0
-348 347 0
348 -346 -347 0
-345 349 0
-348 349 0
-349 345 348 0
-350 96 0
-350 349 0
350 -96 -349 0
344 351 0
-350 351 0
-351 -344 350 0
341 352 0
-351 352 0
-352 -341 351 0
-353 31 0
-353 -6 0
-353 5 0
353 -31 6 -5 0
-354 3 -13 0
-354 -3 13 0
354 3 13 0
354 -3 -13 0
-355 4 -15 0
-355 -4 15 0
355 4 15 0
355 -4 -15 0
-356 354 0
-356 355 0
356 -354 -355 0
-357 37 0
-357 -331 0
357 -37 331 0
-358 37 -331 0
-358 -37 331 0
358 37 331 0
358 -37 -331 0
-359 40 0
-359 -334 0
359 -40 334 0
-360 358 0
-360 359 0
360 -358 -359 0
-357 361 0
-360 361 0
-361 357 360 0
-362 36 0
-362 361 0
362 -36 -361 0
356 363 0
-362 363 0
-363 -356 362 0
353 364 0
-363 364 0
-364 -353 363 0
-365 340 0
-365 352 0
-365 364 0
365 -340 -352 -364 0
326 366 0
-365 366 0
-366 -326 365 0
-368 3 -13 0
-368 -3 13 0
368 3 13 0
368 -3 -13 0
-369 4 -15 0
-369 -4 15 0
369 4 15 0
369 -4 -15 0
-370 368 0
-370 369 0
370 -368 -369 0
-374 372 0
-374 -373 0
374 -372 373 0
-375 372 -373 0
-375 -372 373 0
375 372 373 0
375 -372 -373 0
-378 376 0
-378 -377 0
378 -376 377 0
-379 375 0
-379 378 0
379 -375 -378 0
-374 380 0
-379 380 0
-380 374 379 0
-381 371 0
-381 380 0
381 -371 -380 0
370 382 0
-381 382 0
-382 -370 381 0
-31 383 0
-382 383 0
-383 31 382 0
367 384 0
-383 384 0
-384 -367 383 0
-386 3 -13 0
-386 -3 13 0
386 3 13 0
386 -3 -13 0
-387 4 -15 0
-387 -4 15 0
387 4 15 0
387 -4 -15 0
-388 386 0
-388 387 0
388 -386 -387 0
388 389 0
-371 389 0
-389 -388 371 0
-31 390 0
-389 390 0
-390 31 389 0
-391 3 -13 0
-391 -3 13 0
391 3 13 0
391 -3 -13 0
-392 4 -15 0
-392 -4 15 0
392 4 15 0
392 -4 -15 0
-393 391 0
-393 392 0
393 -391 -392 0
393 395 0
-394 395 0
-395 -393 394 0
-396 390 0
-396 395 0
396 -390 -395 0
385 397 0
-396 397 0
-397 -385 396 0
-398 -6 0
-398 -5 0
-398 11 0
398 6 5 -11 0
-399 3 -13 0
-399 -3 13 0
399 3 13 0
399 -3 -13 0
-400 4 -15 0
-400 -4 15 0
400 4 15 0
400 -4 -15 0
-401 399 0
-401 400 0
401 -399 -400 0
401 402 0
-18 402 0
-402 -401 18 0
398 403 0
-402 403 0
-403 -398 402 0
-404 31 0
-404 6 0
-404 -5 0
-404 -11 0
404 -31 -6 5 11 0
-405 3 -13 0
-405 -3 13 0
405 3 13 0
405 -3 -13 0
-406 4 -15 0
-406 -4 15 0
406 4 15 0
406 -4 -15 0
-407 405 0
-407 406 0
407 -405 -406 0
407 408 0
-36 408 0
-408 -407 36 0
404 409 0
-408 409 0
-409 -404 408 0
-410 -31 0
-410 -6 0
-410 5 0
410 31 6 -5 0
-411 3 -13 0
-411 -3 13 0
411 3 13 0
411 -3 -13 0
-412 4 -15 0
-412 -4 15 0
412 4 15 0
412 -4 -15 0
-413 411 0
-413 412 0
413 -411 -412 0
413 414 0
-51 414 0
-414 -413 51 0
410 415 0
-414 415 0
-415 -410 414 0
-416 -31 0
-416 6 0
-416 -5 0
-416 11 0
416 31 -6 5 -11 0
-417 3 -13 0
-417 -3 13 0
417 3 13 0
417 -3 -13 0
-418 4 -15 0
-418 -4 15 0
418 4 15 0
418 -4 -15 0
-419 417 0
-419 418 0
419 -417 -418 0
419 420 0
-66 420 0
-420 -419 66 0
416 421 0
-420 421 0
-421 -416 420 0
-422 3 -13 0
-422 -3 13 0
422 3 13 0
422 -3 -13 0
-423 4 -15 0
-423 -4 15 0
423 4 15 0
423 -4 -15 0
-424 422 0
-424 423 0
424 -422 -423 0
424 425 0
-394 425 0
-425 -424 394 0
-426 -31 0
-426 6 0
-426 -5 0
-426 -11 0
426 31 -6 5 11 0
-427 3 -13 0
-427 -3 13 0
427 3 13 0
427 -3 -13 0
-428 4 -15 0
-428 -4 15 0
428 4 15 0
428 -4 -15 0
-429 427 0
-429 428 0
429 -427 -428 0
429 430 0
-81 430 0
-430 -429 81 0
426 431 0
-430 431 0
-431 -426 430 0
-432 31 0
-432 6 0
-432 -5 0
-432 11 0
432 -31 -6 5 -11 0
-433 3 -13 0
-433 -3 13 0
433 3 13 0
433 -3 -13 0
-434 4 -15 0
-434 -4 15 0
434 4 15 0
434 -4 -15 0
-435 433 0
-435 434 0
435 -433 -434 0
435 436 0
-96 436 0
-436 -435 96 0
432 437 0
-436 437 0
-437 -432 436 0
-438 -31 0
-438 -6 0
-438 -5 0
-438 -11 0
438 31 6 5 11 0
-439 31 0
-439 -6 0
-439 -5 0
-439 -11 0
439 -31 6 5 11 0
-440 31 0
-440 -6 0
-440 5 0
440 -31 6 -5 0
-438 441 0
-439 441 0
-440 441 0
-441 438 439 440 0
-442 3 -13 0
-442 -3 13 0
442 3 13 0
442 -3 -13 0
-443 4 -15 0
-443 -4 15 0
443 4 15 0
443 -4 -15 0
-444 442 0
-444 443 0
444 -442 -443 0
444 445 0
-114 445 0
-445 -444 114 0
441 446 0
-445 446 0
-446 -441 445 0
-447 403 0
-447 409 0
-447 415 0
-447 421 0
-447 425 0
-447 431 0
-447 437 0
-447 446 0
447 -403 -409 -415 -421 -425 -431 -437 -446 0
8 448 0
-447 448 0
-448 -8 447 0
-450 31 0
-450 -6 0
-450 -5 0
-450 -11 0
450 -31 6 5 11 0
-451 31 0
-451 -6 0
-451 5 0
451 -31 6 -5 0
-452 31 0
-452 6 0
-452 -5 0
-452 -11 0
452 -31 -6 5 11 0
-450 453 0
-451 453 0
-452 453 0
-453 450 451 452 0
-454 3 -13 0
-454 -3 13 0
454 3 13 0
454 -3 -13 0
-455 4 -15 0
-455 -4 15 0
455 4 15 0
455 -4 -15 0
-456 454 0
-456 455 0
456 -454 -455 0
-458 37 0
-458 -457 0
458 -37 457 0
-459 37 -457 0
-459 -37 457 0
459 37 457 0
459 -37 -457 0
-461 40 0
-461 -460 0
461 -40 460 0
-462 459 0
-462 461 0
462 -459 -461 0
-458 463 0
-462 463 0
-463 458 462 0
-464 36 0
-464 463 0
464 -36 -463 0
456 465 0
-464 465 0
-465 -456 464 0
453 466 0
-465 466 0
-466 -453 465 0
-467 -31 0
-467 6 0
-467 -5 0
-467 11 0
467 31 -6 5 -11 0
-468 3 -13 0
-468 -3 13 0
468 3 13 0
468 -3 -13 0
-469 4 -15 0
-469 -4 15 0
469 4 15 0
469 -4 -15 0
-470 468 0
-470 469 0
470 -468 -469 0
-471 67 0
-471 -457 0
471 -67 457 0
-472 67 -457 0
-472 -67 457 0
472 67 457 0
472 -67 -457 0
-473 70 -460 0
-473 -70 460 0
473 70 460 0
473 -70 -460 0
-474 472 0
-474 473 0
474 -472 -473 0
-471 475 0
-474 475 0
-475 471 474 0
-476 66 0
-476 475 0
476 -66 -475 0
470 477 0
-476 477 0
-477 -470 476 0
467 478 0
-477 478 0
-478 -467 477 0
-479 31 0
-479 -5 0
-479 11 0
479 -31 5 -11 0
-480 3 -13 0
-480 -3 13 0
480 3 13 0
480 -3 -13 0
-481 4 -15 0
-481 -4 15 0
481 4 15 0
481 -4 -15 0
-482 480 0
-482 481 0
482 -480 -481 0
-483 97 0
-483 -457 0
483 -97 457 0
-484 97 -457 0
-484 -97 457 0
484 97 457 0
484 -97 -457 0
-485 100 -460 0
-485 -100 460 0
485 100 460 0
485 -100 -460 0
-486 484 0
-486 485 0
486 -484 -485 0
-483 487 0
-486 487 0
-487 483 486 0
-488 96 0
-488 487 0
488 -96 -487 0
482 489 0
-488 489 0
-489 -482 488 0
479 490 0
-489 490 0
-490 -479 489 0
-491 -31 0
-491 6 0
-491 -5 0
-491 -11 0
491 31 -6 5 11 0
-492 3 -13 0
-492 -3 13 0
492 3 13 0
492 -3 -13 0
-493 4 -15 0
-493 -4 15 0
493 4 15 0
493 -4 -15 0
-494 492 0
-494 493 0
494 -492 -493 0
-495 82 0
-495 -457 0
495 -82 457 0
-496 82 -457 0
-496 -82 457 0
496 82 457 0
496 -82 -457 0
-497 85 -460 0
-497 -85 460 0
497 85 460 0
497 -85 -460 0
-498 496 0
-498 497 0
498 -496 -497 0
-495 499 0
-498 499 0
-499 495 498 0
-500 81 0
-500 499 0
500 -81 -499 0
494 501 0
-500 501 0
-501 -494 500 0
491 502 0
-501 502 0
-502 -491 501 0
-503 466 0
-503 478 0
-503 490 0
-503 502 0
503 -466 -478 -490 -502 0
449 504 0
-503 504 0
-504 -449 503 0
-506 -31 0
-506 -6 0
-506 5 0
506 31 6 -5 0
-507 3 -13 0
-507 -3 13 0
507 3 13 0
507 -3 -13 0
-508 4 -15 0
-508 -4 15 0
508 4 15 0
508 -4 -15 0
-509 507 0
-509 508 0
509 -507 -508 0
-513 511 0
-513 -512 0
513 -511 512 0
-514 511 -512 0
-514 -511 512 0
514 511 512 0
514 -511 -512 0
-517 515 0
-517 -516 0
517 -515 516 0
-518 514 0
-518 517 0
518 -514 -517 0
-513 519 0
-518 519 0
-519 513 518 0
-520 510 0
-520 519 0
520 -510 -519 0
509 521 0
-520 521 0
-521 -509 520 0
506 522 0
-521 522 0
-522 -506 521 0
-523 -31 0
-523 6 0
-523 -5 0
523 31 -6 5 0
-524 3 -13 0
-524 -3 13 0
524 3 13 0
524 -3 -13 0
-525 4 -15 0
-525 -4 15 0
525 4 15 0
525 -4 -15 0
-526 524 0
-526 525 0
526 -524 -525 0
-527 67 0
-527 -512 0
527 -67 512 0
-528 67 -512 0
-528 -67 512 0
528 67 512 0
528 -67 -512 0
-529 70 -516 0
-529 -70 516 0
529 70 516 0
529 -70 -516 0
-530 528 0
-530 529 0
530 -528 -529 0
-527 531 0
-530 531 0
-531 527 530 0
-532 66 0
-532 531 0
532 -66 -531 0
526 533 0
-532 533 0
-533 -526 532 0
523 534 0
-533 534 0
-534 -523 533 0
-535 -31 0
-535 -6 0
-535 -5 0
535 31 6 5 0
-536 31 0
-536 -5 0
536 -31 5 0
-535 537 0
-536 537 0
-537 535 536 0
-538 3 -13 0
-538 -3 13 0
538 3 13 0
538 -3 -13 0
-539 4 -15 0
-539 -4 15 0
539 4 15 0
539 -4 -15 0
-540 538 0
-540 539 0
540 -538 -539 0
-541 97 0
-541 -512 0
541 -97 512 0
-542 97 -512 0
-542 -97 512 0
542 97 512 0
542 -97 -512 0
-543 100 -516 0
-543 -100 516 0
543 100 516 0
543 -100 -516 0
-544 542 0
-544 543 0
544 -542 -543 0
-541 545 0
-544 545 0
-545 541 544 0
-546 96 0
-546 545 0
546 -96 -545 0
540 547 0
-546 547 0
-547 -540 546 0
537 548 0
-547 548 0
-548 -537 547 0
-549 31 0
-549 -6 0
-549 5 0
549 -31 6 -5 0
-550 3 -13 0
-550 -3 13 0
550 3 13 0
550 -3 -13 0
-551 4 -15 0
-551 -4 15 0
551 4 15 0
551 -4 -15 0
-552 550 0
-552 551 0
552 -550 -551 0
-553 37 0
-553 -512 0
553 -37 512 0
-554 37 -512 0
-554 -37 512 0
554 37 512 0
554 -37 -512 0
-555 40 0
-555 -516 0
555 -40 516 0
-556 554 0
-556 555 0
556 -554 -555 0
-553 557 0
-556 557 0
-557 553 556 0
-558 36 0
-558 557 0
558 -36 -557 0
552 559 0
-558 559 0
-559 -552 558 0
549 560 0
-559 560 0
-560 -549 559 0
-561 522 0
-561 534 0
-561 548 0
-561 560 0
561 -522 -534 -548 -560 0
505 562 0
-561 562 0
-562 -505 561 0
-564 -6 0
-564 -5 0
-564 11 0
564 6 5 -11 0
-565 3 -13 0
-565 -3 13 0
565 3 13 0
565 -3 -13 0
-566 4 -15 0
-566 -4 15 0
566 4 15 0
566 -4 -15 0
-567 565 0
-567 566 0
567 -565 -566 0
-569 19 0
-569 -568 0
569 -19 568 0
-570 19 -568 0
-570 -19 568 0
570 19 568 0
570 -19 -568 0
-572 23 -571 0
-572 -23 571 0
572 23 571 0
572 -23 -571 0
-573 570 0
-573 572 0
573 -570 -572 0
-569 574 0
-573 574 0
-574 569 573 0
-575 18 0
-575 574 0
575 -18 -574 0
567 576 0
-575 576 0
-576 -567 575 0
564 577 0
-576 577 0
-577 -564 576 0
-578 31 0
-578 6 0
-578 -5 0
-578 -11 0
578 -31 -6 5 11 0
-579 3 -13 0
-579 -3 13 0
579 3 13 0
579 -3 -13 0
-580 4 -15 0
-580 -4 15 0
580 4 15 0
580 -4 -15 0
-581 579 0
-581 580 0
581 -579 -580 0
-582 37 0
-582 -568 0
582 -37 568 0
-583 37 -568 0
-583 -37 568 0
583 37 568 0
583 -37 -568 0
-584 40 0
-584 -571 0
584 -40 571 0
-585 583 0
-585 584 0
585 -583 -584 0
-582 586 0
-585 586 0
-586 582 585 0
-587 36 0
-587 586 0
587 -36 -586 0
581 588 0
-587 588 0
-588 -581 587 0
578 589 0
-588 589 0
-589 -578 588 0
-590 -31 0
-590 -6 0
-590 5 0
590 31 6 -5 0
-591 3 -13 0
-591 -3 13 0
591 3 13 0
591 -3 -13 0
-592 4 -15 0
-592 -4 15 0
592 4 15 0
592 -4 -15 0
-593 591 0
-593 592 0
593 -591 -592 0
-594 52 0
-594 -568 0
594 -52 568 0
-595 52 -568 0
-595 -52 568 0
595 52 568 0
595 -52 -568 0
-596 55 -571 0
-596 -55 571 0
596 55 571 0
596 -55 -571 0
-597 595 0
-597 596 0
597 -595 -596 0
-594 598 0
-597 598 0
-598 594 597 0
-599 51 0
-599 598 0
599 -51 -598 0
593 600 0
-599 600 0
-600 -593 599 0
590 601 0
-600 601 0
-601 -590 600 0
-602 -31 0
-602 6 0
-602 -5 0
-602 11 0
602 31 -6 5 -11 0
-603 3 -13 0
-603 -3 13 0
603 3 13 0
603 -3 -13 0
-604 4 -15 0
-604 -4 15 0
604 4 15 0
604 -4 -15 0
-605 603 0
-605 604 0
605 -603 -604 0
-606 67 0
-606 -568 0
606 -67 568 0
-607 67 -568 0
-607 -67 568 0
607 67 568 0
607 -67 -568 0
-608 70 -571 0
-608 -70 571 0
608 70 571 0
608 -70 -571 0
-609 607 0
-609 608 0
609 -607 -608 0
-606 610 0
-609 610 0
-610 606 609 0
-611 66 0
-611 610 0
611 -66 -610 0
605 612 0
-611 612 0
-612 -605 611 0
602 613 0
-612 613 0
-613 -602 612 0
-614 -31 0
-614 6 0
-614 -5 0
-614 -11 0
614 31 -6 5 11 0
-615 3 -13 0
-615 -3 13 0
615 3 13 0
615 -3 -13 0
-616 4 -15 0
-616 -4 15 0
616 4 15 0
616 -4 -15 0
-617 615 0
-617 616 0
617 -615 -616 0
-618 82 0
-618 -568 0
618 -82 568 0
-619 82 -568 0
-619 -82 568 0
619 82 568 0
619 -82 -568 0
-620 85 -571 0
-620 -85 571 0
620 85 571 0
620 -85 -571 0
-621 619 0
-621 620 0
621 -619 -620 0
-618 622 0
-621 622 0
-622 618 621 0
-623 81 0
-623 622 0
623 -81 -622 0
617 624 0
-623 624 0
-624 -617 623 0
614 625 0
-624 625 0
-625 -614 624 0
-626 31 0
-626 6 0
-626 -5 0
-626 11 0
626 -31 -6 5 -11 0
-627 3 -13 0
-627 -3 13 0
627 3 13 0
627 -3 -13 0
-628 4 -15 0
-628 -4 15 0
628 4 15 0
628 -4 -15 0
-629 627 0
-629 628 0
629 -627 -628 0
-630 97 0
-630 -568 0
630 -97 568 0
-631 97 -568 0
-631 -97 568 0
631 97 568 0
631 -97 -568 0
-632 100 -571 0
-632 -100 571 0
632 100 571 0
632 -100 -571 0
-633 631 0
-633 632 0
633 -631 -632 0
-630 634 0
-633 634 0
-634 630 633 0
-635 96 0
-635 634 0
635 -96 -634 0
629 636 0
-635 636 0
-636 -629 635 0
626 637 0
-636 637 0
-637 -626 636 0
-638 -31 0
-638 -6 0
-638 -5 0
-638 -11 0
638 31 6 5 11 0
-639 31 0
-639 -6 0
-639 -5 0
-639 -11 0
639 -31 6 5 11 0
-640 31 0
-640 -6 0
-640 5 0
640 -31 6 -5 0
-638 641 0
-639 641 0
-640 641 0
-641 638 639 640 0
-642 3 -13 0
-642 -3 13 0
642 3 13 0
642 -3 -13 0
-643 4 -15 0
-643 -4 15 0
643 4 15 0
643 -4 -15 0
-644 642 0
-644 643 0
644 -642 -643 0
-645 115 0
-645 -568 0
645 -115 568 0
-646 115 -568 0
-646 -115 568 0
646 115 568 0
646 -115 -568 0
-647 118 -571 0
-647 -118 571 0
647 118 571 0
647 -118 -571 0
-648 646 0
-648 647 0
648 -646 -647 0
-645 649 0
-648 649 0
-649 645 648 0
-650 114 0
-650 649 0
650 -114 -649 0
644 651 0
-650 651 0
-651 -644 650 0
641 652 0
-651 652 0
-652 -641 651 0
-653 577 0
-653 589 0
-653 601 0
-653 613 0
-653 625 0
-653 637 0
-653 652 0
653 -577 -589 -601 -613 -625 -637 -652 0
563 654 0
-653 654 0
-654 -563 653 0
-655 9 0
-655 126 0
-655 191 0
-655 258 0
-655 325 0
-655 366 0
-655 384 0
-655 397 0
-655 448 0
-655 504 0
-655 562 0
-655 654 0
655 -9 -126 -191 -258 -325 -366 -384 -397 -448 -504 -562 -654 0
-656 1 -3 0
-656 -1 3 0
656 1 3 0
656 -1 -3 0
-657 2 -4 0
-657 -2 4 0
657 2 4 0
657 -2 -4 0
-658 656 0
-658 657 0
658 -656 -657 0
-659 377 -376 0
-659 -377 376 0
659 377 376 0
659 -377 -376 0
658 660 0
-659 660 0
-660 -658 659 0
-661 3 -1 0
-661 -3 1 0
661 3 1 0
661 -3 -1 0
-662 4 -2 0
-662 -4 2 0
662 4 2 0
662 -4 -2 0
-663 661 0
-663 662 0
663 -661 -662 0
-664 371 -367 0
-664 -371 367 0
664 371 367 0
664 -371 -367 0
663 665 0
-664 665 0
-665 -663 664 0
-666 1 -3 0
-666 -1 3 0
666 1 3 0
666 -1 -3 0
-667 2 -4 0
-667 -2 4 0
667 2 4 0
667 -2 -4 0
-668 666 0
-668 667 0
668 -666 -667 0
-669 10 -36 0
-669 -10 36 0
669 10 36 0
669 -10 -36 0
668 670 0
-669 670 0
-670 -668 669 0
-671 1 -3 0
-671 -1 3 0
671 1 3 0
671 -1 -3 0
-672 2 -4 0
-672 -2 4 0
672 2 4 0
672 -2 -4 0
-673 671 0
-673 672 0
673 -671 -672 0
-674 127 -18 0
-674 -127 18 0
674 127 18 0
674 -127 -18 0
673 675 0
-674 675 0
-675 -673 674 0
-676 3 -1 0
-676 -3 1 0
676 3 1 0
676 -3 -1 0
-677 4 -2 0
-677 -4 2 0
677 4 2 0
677 -4 -2 0
-678 676 0
-678 677 0
678 -676 -677 0
-679 372 -373 0
-679 -372 373 0
679 372 373 0
679 -372 -373 0
678 680 0
-679 680 0
-680 -678 679 0
-681 3 -1 0
-681 -3 1 0
681 3 1 0
681 -3 -1 0
-682 4 -2 0
-682 -4 2 0
682 4 2 0
682 -4 -2 0
-683 681 0
-683 682 0
683 -681 -682 0
-684 511 -199 0
-684 -511 199 0
684 511 199 0
684 -511 -199 0
683 685 0
-684 685 0
-685 -683 684 0
-686 1 -3 0
-686 -1 3 0
686 1 3 0
686 -1 -3 0
-687 2 -4 0
-687 -2 4 0
687 2 4 0
687 -2 -4 0
-688 686 0
-688 687 0
688 -686 -687 0
-689 334 -70 0
-689 -334 70 0
689 334 70 0
689 -334 -70 0
688 690 0
-689 690 0
-690 -688 689 0
-691 1 -3 0
-691 -1 3 0
691 1 3 0
691 -1 -3 0
-692 2 -4 0
-692 -2 4 0
692 2 4 0
692 -2 -4 0
-693 691 0
-693 692 0
693 -691 -692 0
-694 563 -114 0
-694 -563 114 0
694 563 114 0
694 -563 -114 0
693 695 0
-694 695 0
-695 -693 694 0
-696 3 -1 0
-696 -3 1 0
696 3 1 0
696 -3 -1 0
-697 4 -2 0
-697 -4 2 0
697 4 2 0
697 -4 -2 0
-698 696 0
-698 697 0
698 -696 -697 0
-699 37 -20 0
-699 -37 20 0
699 37 20 0
699 -37 -20 0
698 700 0
-699 700 0
-700 -698 699 0
-701 1 -3 0
-701 -1 3 0
701 1 3 0
701 -1 -3 0
-702 2 -4 0
-702 -2 4 0
702 2 4 0
702 -2 -4 0
-703 701 0
-703 702 0
703 -701 -702 0
-704 568 -115 0
-704 -568 115 0
704 568 115 0
704 -568 -115 0
703 705 0
-704 705 0
-705 -703 704 0
-706 3 -1 0
-706 -3 1 0
706 3 1 0
706 -3 -1 0
-707 4 -2 0
-707 -4 2 0
707 4 2 0
707 -4 -2 0
-708 706 0
-708 707 0
708 -706 -707 0
-709 67 -331 0
-709 -67 331 0
709 67 331 0
709 -67 -331 0
708 710 0
-709 710 0
-710 -708 709 0
-711 1 -3 0
-711 -1 3 0
711 1 3 0
711 -1 -3 0
-712 2 -4 0
-712 -2 4 0
712 2 4 0
712 -2 -4 0
-713 711 0
-713 712 0
713 -711 -712 0
-714 457 -82 0
-714 -457 82 0
714 457 82 0
714 -457 -82 0
713 715 0
-714 715 0
-715 -713 714 0
-716 1 -3 0
-716 -1 3 0
716 1 3 0
716 -1 -3 0
-717 2 -4 0
-717 -2 4 0
717 2 4 0
717 -2 -4 0
-718 716 0
-718 717 0
718 -716 -717 0
-719 512 -97 0
-719 -512 97 0
719 512 97 0
719 -512 -97 0
718 720 0
-719 720 0
-720 -718 719 0
-721 3 -1 0
-721 -3 1 0
721 3 1 0
721 -3 -1 0
-722 4 -2 0
-722 -4 2 0
722 4 2 0
722 -4 -2 0
-723 721 0
-723 722 0
723 -721 -722 0
-724 96 -505 0
-724 -96 505 0
724 96 505 0
724 -96 -505 0
723 725 0
-724 725 0
-725 -723 724 0
-726 1 -3 0
-726 -1 3 0
726 1 3 0
726 -1 -3 0
-727 2 -4 0
-727 -2 4 0
727 2 4 0
727 -2 -4 0
-728 726 0
-728 727 0
728 -726 -727 0
-729 266 -52 0
-729 -266 52 0
729 266 52 0
729 -266 -52 0
728 730 0
-729 730 0
-730 -728 729 0
-731 1 -3 0
-731 -1 3 0
731 1 3 0
731 -1 -3 0
-732 2 -4 0
-732 -2 4 0
732 2 4 0
732 -2 -4 0
-733 731 0
-733 732 0
733 -731 -732 0
-734 202 -515 0
-734 -202 515 0
734 202 515 0
734 -202 -515 0
733 735 0
-734 735 0
-735 -733 734 0
-736 1 -3 0
-736 -1 3 0
736 1 3 0
736 -1 -3 0
-737 2 -4 0
-737 -2 4 0
737 2 4 0
737 -2 -4 0
-738 736 0
-738 737 0
738 -736 -737 0
-739 192 -510 0
-739 -192 510 0
739 192 510 0
739 -192 -510 0
738 740 0
-739 740 0
-740 -738 739 0
-741 3 -1 0
-741 -3 1 0
741 3 1 0
741 -3 -1 0
-742 4 -2 0
-742 -4 2 0
742 4 2 0
742 -4 -2 0
-743 741 0
-743 742 0
743 -741 -742 0
-744 66 -326 0
-744 -66 326 0
744 66 326 0
744 -66 -326 0
743 745 0
-744 745 0
-745 -743 744 0
-746 3 -1 0
-746 -3 1 0
746 3 1 0
746 -3 -1 0
-747 4 -2 0
-747 -4 2 0
747 4 2 0
747 -4 -2 0
-748 746 0
-748 747 0
748 -746 -747 0
-749 40 -24 0
-749 -40 24 0
749 40 24 0
749 -40 -24 0
748 750 0
-749 750 0
-750 -748 749 0
-751 1 -3 0
-751 -1 3 0
751 1 3 0
751 -1 -3 0
-752 2 -4 0
-752 -2 4 0
752 2 4 0
752 -2 -4 0
-753 751 0
-753 752 0
753 -751 -752 0
-754 259 -51 0
-754 -259 51 0
754 259 51 0
754 -259 -51 0
753 755 0
-754 755 0
-755 -753 754 0
-756 3 -1 0
-756 -3 1 0
756 3 1 0
756 -3 -1 0
-757 4 -2 0
-757 -4 2 0
757 4 2 0
757 -4 -2 0
-758 756 0
-758 757 0
758 -756 -757 0
-759 394 -385 0
-759 -394 385 0
759 394 385 0
759 -394 -385 0
758 760 0
-759 760 0
-760 -758 759 0
-761 1 -3 0
-761 -1 3 0
761 1 3 0
761 -1 -3 0
-762 2 -4 0
-762 -2 4 0
762 2 4 0
762 -2 -4 0
-763 761 0
-763 762 0
763 -761 -762 0
-764 449 -81 0
-764 -449 81 0
764 449 81 0
764 -449 -81 0
763 765 0
-764 765 0
-765 -763 764 0
-766 1 -3 0
-766 -1 3 0
766 1 3 0
766 -1 -3 0
-767 2 -4 0
-767 -2 4 0
767 2 4 0
767 -2 -4 0
-768 766 0
-768 767 0
768 -766 -767 0
-769 571 -118 0
-769 -571 118 0
769 571 118 0
769 -571 -118 0
768 770 0
-769 770 0
-770 -768 769 0
-771 3 -1 0
-771 -3 1 0
771 3 1 0
771 -3 -1 0
-772 4 -2 0
-772 -4 2 0
772 4 2 0
772 -4 -2 0
-773 771 0
-773 772 0
773 -771 -772 0
-774 100 -516 0
-774 -100 516 0
774 100 516 0
774 -100 -516 0
773 775 0
-774 775 0
-775 -773 774 0
-776 1 -3 0
-776 -1 3 0
776 1 3 0
776 -1 -3 0
-777 2 -4 0
-777 -2 4 0
777 2 4 0
777 -2 -4 0
-778 776 0
-778 777 0
778 -776 -777 0
-779 135 -23 0
-779 -135 23 0
779 135 23 0
779 -135 -23 0
778 780 0
-779 780 0
-780 -778 779 0
-781 1 -3 0
-781 -1 3 0
781 1 3 0
781 -1 -3 0
-782 2 -4 0
-782 -2 4 0
782 2 4 0
782 -2 -4 0
-783 781 0
-783 782 0
783 -781 -782 0
-784 132 -19 0
-784 -132 19 0
784 132 19 0
784 -132 -19 0
783 785 0
-784 785 0
-785 -783 784 0
-786 3 -1 0
-786 -3 1 0
786 3 1 0
786 -3 -1 0
-787 4 -2 0
-787 -4 2 0
787 4 2 0
787 -4 -2 0
-788 786 0
-788 787 0
788 -786 -787 0
-789 55 -269 0
-789 -55 269 0
789 55 269 0
789 -55 -269 0
788 790 0
-789 790 0
-790 -788 789 0
-791 1 -3 0
-791 -1 3 0
791 1 3 0
791 -1 -3 0
-792 2 -4 0
-792 -2 4 0
792 2 4 0
792 -2 -4 0
-793 791 0
-793 792 0
793 -791 -792 0
-794 460 -85 0
-794 -460 85 0
794 460 85 0
794 -460 -85 0
793 795 0
-794 795 0
-795 -793 794 0
-796 660 0
-796 665 0
-796 670 0
-796 675 0
-796 680 0
-796 685 0
-796 690 0
-796 695 0
-796 700 0
-796 705 0
-796 710 0
-796 715 0
-796 720 0
-796 725 0
-796 730 0
-796 735 0
-796 740 0
-796 745 0
-796 750 0
-796 755 0
-796 760 0
-796 765 0
-796 770 0
-796 775 0
-796 780 0
-796 785 0
-796 790 0
-796 795 0
796 -660 -665 -670 -675 -680 -685 -690 -695 -700 -705 -710 -715 -720 -725 -730 -735 -740 -745 -750 -755 -760 -765 -770 -775 -780 -785 -790 -795 0
655 0
796 0
